Maximize
  0.0029980871060827 Z_417_0_0 + 0.0165519403675204 Z_417_0_1
   + 0.775128019570954 Z_417_0_2 + 0.00929705583072079 Z_417_0_3
   + 0.00243213134581407 Z_568_0_0 + 0.0137439372764254 Z_568_0_1
   + 0.6786467899417054 Z_568_0_2 + 0.00757452149269466 Z_568_0_3
   + 0.00222683351183115 Z_267_0_0 + 0.0147239391408413 Z_267_0_1
   + 0.718084855436932 Z_267_0_2 + 0.0198622834659714 Z_267_0_3
   + 0.00243213134581407 Z_612_0_0 + 0.0137439372764254 Z_612_0_1
   + 0.6786467899417054 Z_612_0_2 + 0.00757452149269466 Z_612_0_3
   + 0.0253446572749922 Z_563_0_0 + 0.3196950465538353 Z_563_0_1
   + 0.0074075661651884 Z_563_0_2 + 0.0444012759504738 Z_563_0_3
   + 0.00243954385857047 Z_614_0_0 + 0.0117593354673796 Z_614_0_1
   + 0.7901138849580882 Z_614_0_2 + 0.027944983853324 Z_614_0_3
   + 0.00222683351183115 Z_398_0_0 + 0.0147239391408413 Z_398_0_1
   + 0.718084855436932 Z_398_0_2 + 0.0198622834659714 Z_398_0_3
   + 0.00698163330481546 Z_369_0_0 + 0.1097648501063197 Z_369_0_1
   + 0.0133978751950955 Z_369_0_2 + 0.0167826152195662 Z_369_0_3
   + 0.0185893405579799 Z_626_0_0 + 0.0124009956072976 Z_626_0_1
   + 0.0118020799691162 Z_626_0_2 + 0.7797736975721179 Z_626_0_3 + [
   0.0051422708618331 Z_417_0_0 * Z_568_0_0 + 0.4 Z_417_0_0 * Z_267_0_0
   + 0.0051422708618331 Z_417_0_0 * Z_612_0_0
   + 3.425451446068208e-04 Z_417_0_0 * Z_563_0_0
   + 0.4 Z_417_0_0 * Z_398_0_0 + 0.0051422708618331 Z_417_0_1 * Z_568_0_1
   + 0.4 Z_417_0_1 * Z_267_0_1 + 0.0051422708618331 Z_417_0_1 * Z_612_0_1
   + 3.425451446068208e-04 Z_417_0_1 * Z_563_0_1
   + 0.4 Z_417_0_1 * Z_398_0_1 + 0.0051422708618331 Z_417_0_2 * Z_568_0_2
   + 0.4 Z_417_0_2 * Z_267_0_2 + 0.0051422708618331 Z_417_0_2 * Z_612_0_2
   + 3.425451446068208e-04 Z_417_0_2 * Z_563_0_2
   + 0.4 Z_417_0_2 * Z_398_0_2 + 0.0051422708618331 Z_417_0_3 * Z_568_0_3
   + 0.4 Z_417_0_3 * Z_267_0_3 + 0.0051422708618331 Z_417_0_3 * Z_612_0_3
   + 3.425451446068208e-04 Z_417_0_3 * Z_563_0_3
   + 0.4 Z_417_0_3 * Z_398_0_3 + 0.0051422708618331 Z_568_0_0 * Z_267_0_0
   + 0.4 Z_568_0_0 * Z_612_0_0 + 0.00401477723809618 Z_568_0_0 * Z_563_0_0
   + 0.0051422708618331 Z_568_0_0 * Z_398_0_0
   + 0.0051422708618331 Z_568_0_1 * Z_267_0_1 + 0.4 Z_568_0_1 * Z_612_0_1
   + 0.00401477723809618 Z_568_0_1 * Z_563_0_1
   + 0.0051422708618331 Z_568_0_1 * Z_398_0_1
   + 0.0051422708618331 Z_568_0_2 * Z_267_0_2 + 0.4 Z_568_0_2 * Z_612_0_2
   + 0.00401477723809618 Z_568_0_2 * Z_563_0_2
   + 0.0051422708618331 Z_568_0_2 * Z_398_0_2
   + 0.0051422708618331 Z_568_0_3 * Z_267_0_3 + 0.4 Z_568_0_3 * Z_612_0_3
   + 0.00401477723809618 Z_568_0_3 * Z_563_0_3
   + 0.0051422708618331 Z_568_0_3 * Z_398_0_3
   + 0.0051422708618331 Z_267_0_0 * Z_612_0_0
   + 3.425451446068208e-04 Z_267_0_0 * Z_563_0_0
   + 0.4 Z_267_0_0 * Z_398_0_0 + 0.0051422708618331 Z_267_0_1 * Z_612_0_1
   + 3.425451446068208e-04 Z_267_0_1 * Z_563_0_1
   + 0.4 Z_267_0_1 * Z_398_0_1 + 0.0051422708618331 Z_267_0_2 * Z_612_0_2
   + 3.425451446068208e-04 Z_267_0_2 * Z_563_0_2
   + 0.4 Z_267_0_2 * Z_398_0_2 + 0.0051422708618331 Z_267_0_3 * Z_612_0_3
   + 3.425451446068208e-04 Z_267_0_3 * Z_563_0_3
   + 0.4 Z_267_0_3 * Z_398_0_3 + 0.00401477723809618 Z_612_0_0 * Z_563_0_0
   + 0.0051422708618331 Z_612_0_0 * Z_398_0_0
   + 0.00401477723809618 Z_612_0_1 * Z_563_0_1
   + 0.0051422708618331 Z_612_0_1 * Z_398_0_1
   + 0.00401477723809618 Z_612_0_2 * Z_563_0_2
   + 0.0051422708618331 Z_612_0_2 * Z_398_0_2
   + 0.00401477723809618 Z_612_0_3 * Z_563_0_3
   + 0.0051422708618331 Z_612_0_3 * Z_398_0_3
   + 3.5497245489265084e-04 Z_563_0_0 * Z_614_0_0
   + 3.425451446068208e-04 Z_563_0_0 * Z_398_0_0
   + 1.56657e-08 Z_563_0_0 * Z_369_0_0
   + 0.1606642311503476 Z_563_0_0 * Z_626_0_0
   + 3.5497245489265084e-04 Z_563_0_1 * Z_614_0_1
   + 3.425451446068208e-04 Z_563_0_1 * Z_398_0_1
   + 1.56657e-08 Z_563_0_1 * Z_369_0_1
   + 0.1606642311503476 Z_563_0_1 * Z_626_0_1
   + 3.5497245489265084e-04 Z_563_0_2 * Z_614_0_2
   + 3.425451446068208e-04 Z_563_0_2 * Z_398_0_2
   + 1.56657e-08 Z_563_0_2 * Z_369_0_2
   + 0.1606642311503476 Z_563_0_2 * Z_626_0_2
   + 3.5497245489265084e-04 Z_563_0_3 * Z_614_0_3
   + 3.425451446068208e-04 Z_563_0_3 * Z_398_0_3
   + 1.56657e-08 Z_563_0_3 * Z_369_0_3
   + 0.1606642311503476 Z_563_0_3 * Z_626_0_3
   + 0.0148997226385501 Z_614_0_0 * Z_369_0_0
   + 0.0148997226385501 Z_614_0_1 * Z_369_0_1
   + 0.0148997226385501 Z_614_0_2 * Z_369_0_2
   + 0.0148997226385501 Z_614_0_3 * Z_369_0_3 ] / 2 
Subject To
 constraint1_4170: Z_417_0_0 + Z_417_0_1 + Z_417_0_2 + Z_417_0_3 <= 1
 constraint1_5680: Z_568_0_0 + Z_568_0_1 + Z_568_0_2 + Z_568_0_3 <= 1
 constraint1_2670: Z_267_0_0 + Z_267_0_1 + Z_267_0_2 + Z_267_0_3 <= 1
 constraint1_6120: Z_612_0_0 + Z_612_0_1 + Z_612_0_2 + Z_612_0_3 <= 1
 constraint1_5630: Z_563_0_0 + Z_563_0_1 + Z_563_0_2 + Z_563_0_3 <= 1
 constraint1_6140: Z_614_0_0 + Z_614_0_1 + Z_614_0_2 + Z_614_0_3 <= 1
 constraint1_3980: Z_398_0_0 + Z_398_0_1 + Z_398_0_2 + Z_398_0_3 <= 1
 constraint1_3690: Z_369_0_0 + Z_369_0_1 + Z_369_0_2 + Z_369_0_3 <= 1
 constraint1_6260: Z_626_0_0 + Z_626_0_1 + Z_626_0_2 + Z_626_0_3 <= 1
 constraint2_4170: Z_417_0_0 <= 1
 constraint2_4171: Z_417_0_1 <= 1
 constraint2_4172: Z_417_0_2 <= 1
 constraint2_4173: Z_417_0_3 <= 1
 constraint2_5680: Z_568_0_0 <= 1
 constraint2_5681: Z_568_0_1 <= 1
 constraint2_5682: Z_568_0_2 <= 1
 constraint2_5683: Z_568_0_3 <= 1
 constraint2_2670: Z_267_0_0 <= 1
 constraint2_2671: Z_267_0_1 <= 1
 constraint2_2672: Z_267_0_2 <= 1
 constraint2_2673: Z_267_0_3 <= 1
 constraint2_6120: Z_612_0_0 <= 1
 constraint2_6121: Z_612_0_1 <= 1
 constraint2_6122: Z_612_0_2 <= 1
 constraint2_6123: Z_612_0_3 <= 1
 constraint2_5630: Z_563_0_0 <= 1
 constraint2_5631: Z_563_0_1 <= 1
 constraint2_5632: Z_563_0_2 <= 1
 constraint2_5633: Z_563_0_3 <= 1
 constraint2_6140: Z_614_0_0 <= 1
 constraint2_6141: Z_614_0_1 <= 1
 constraint2_6142: Z_614_0_2 <= 1
 constraint2_6143: Z_614_0_3 <= 1
 constraint2_3980: Z_398_0_0 <= 1
 constraint2_3981: Z_398_0_1 <= 1
 constraint2_3982: Z_398_0_2 <= 1
 constraint2_3983: Z_398_0_3 <= 1
 constraint2_3690: Z_369_0_0 <= 1
 constraint2_3691: Z_369_0_1 <= 1
 constraint2_3692: Z_369_0_2 <= 1
 constraint2_3693: Z_369_0_3 <= 1
 constraint2_6260: Z_626_0_0 <= 1
 constraint2_6261: Z_626_0_1 <= 1
 constraint2_6262: Z_626_0_2 <= 1
 constraint2_6263: Z_626_0_3 <= 1
Bounds
Binaries
 Z_417_0_0 Z_417_0_1 Z_417_0_2 Z_417_0_3 Z_568_0_0 Z_568_0_1 Z_568_0_2
 Z_568_0_3 Z_267_0_0 Z_267_0_1 Z_267_0_2 Z_267_0_3 Z_612_0_0 Z_612_0_1
 Z_612_0_2 Z_612_0_3 Z_563_0_0 Z_563_0_1 Z_563_0_2 Z_563_0_3 Z_614_0_0
 Z_614_0_1 Z_614_0_2 Z_614_0_3 Z_398_0_0 Z_398_0_1 Z_398_0_2 Z_398_0_3
 Z_369_0_0 Z_369_0_1 Z_369_0_2 Z_369_0_3 Z_626_0_0 Z_626_0_1 Z_626_0_2
 Z_626_0_3
End
